Input: tic-14crafc.fixed040-Forb.dzn
============================================================
Total Runtime: 0.4544 seconds
Input parsing: 0.0033 seconds
Constraint building: 0.2187 seconds
MaxSAT solving: 0.0545 seconds
============================================================

Total variables: 75421
Total clauses: 162959
MaxSAT found with cost: N/A
NO SOLUTION FOUND
